certificates/rado_a5_c257_N51.cnf
c Rad2 upper bound instance: x1 + 5*x2 - x3 = 257, interval [1,51]
p cnf 51 530
1 3 51 0
-1 -3 -51 0
2 4 51 0
-2 -4 -51 0
3 5 51 0
-3 -5 -51 0
4 6 51 0
-4 -6 -51 0
5 7 51 0
-5 -7 -51 0
1 8 50 0
-1 -8 -50 0
6 8 51 0
-6 -8 -51 0
2 9 50 0
-2 -9 -50 0
7 9 51 0
-7 -9 -51 0
3 10 50 0
-3 -10 -50 0
8 10 51 0
-8 -10 -51 0
4 11 50 0
-4 -11 -50 0
9 11 51 0
-9 -11 -51 0
5 12 50 0
-5 -12 -50 0
10 12 51 0
-10 -12 -51 0
1 13 49 0
-1 -13 -49 0
6 13 50 0
-6 -13 -50 0
11 13 51 0
-11 -13 -51 0
2 14 49 0
-2 -14 -49 0
7 14 50 0
-7 -14 -50 0
12 14 51 0
-12 -14 -51 0
3 15 49 0
-3 -15 -49 0
8 15 50 0
-8 -15 -50 0
13 15 51 0
-13 -15 -51 0
4 16 49 0
-4 -16 -49 0
9 16 50 0
-9 -16 -50 0
14 16 51 0
-14 -16 -51 0
5 17 49 0
-5 -17 -49 0
10 17 50 0
-10 -17 -50 0
15 17 51 0
-15 -17 -51 0
1 18 48 0
-1 -18 -48 0
6 18 49 0
-6 -18 -49 0
11 18 50 0
-11 -18 -50 0
16 18 51 0
-16 -18 -51 0
2 19 48 0
-2 -19 -48 0
7 19 49 0
-7 -19 -49 0
12 19 50 0
-12 -19 -50 0
17 19 51 0
-17 -19 -51 0
3 20 48 0
-3 -20 -48 0
8 20 49 0
-8 -20 -49 0
13 20 50 0
-13 -20 -50 0
18 20 51 0
-18 -20 -51 0
4 21 48 0
-4 -21 -48 0
9 21 49 0
-9 -21 -49 0
14 21 50 0
-14 -21 -50 0
19 21 51 0
-19 -21 -51 0
5 22 48 0
-5 -22 -48 0
10 22 49 0
-10 -22 -49 0
15 22 50 0
-15 -22 -50 0
20 22 51 0
-20 -22 -51 0
1 23 47 0
-1 -23 -47 0
6 23 48 0
-6 -23 -48 0
11 23 49 0
-11 -23 -49 0
16 23 50 0
-16 -23 -50 0
21 23 51 0
-21 -23 -51 0
2 24 47 0
-2 -24 -47 0
7 24 48 0
-7 -24 -48 0
12 24 49 0
-12 -24 -49 0
17 24 50 0
-17 -24 -50 0
22 24 51 0
-22 -24 -51 0
3 25 47 0
-3 -25 -47 0
8 25 48 0
-8 -25 -48 0
13 25 49 0
-13 -25 -49 0
18 25 50 0
-18 -25 -50 0
23 25 51 0
-23 -25 -51 0
4 26 47 0
-4 -26 -47 0
9 26 48 0
-9 -26 -48 0
14 26 49 0
-14 -26 -49 0
19 26 50 0
-19 -26 -50 0
24 26 51 0
-24 -26 -51 0
5 27 47 0
-5 -27 -47 0
10 27 48 0
-10 -27 -48 0
15 27 49 0
-15 -27 -49 0
20 27 50 0
-20 -27 -50 0
25 27 51 0
-25 -27 -51 0
1 28 46 0
-1 -28 -46 0
6 28 47 0
-6 -28 -47 0
11 28 48 0
-11 -28 -48 0
16 28 49 0
-16 -28 -49 0
21 28 50 0
-21 -28 -50 0
26 28 51 0
-26 -28 -51 0
2 29 46 0
-2 -29 -46 0
7 29 47 0
-7 -29 -47 0
12 29 48 0
-12 -29 -48 0
17 29 49 0
-17 -29 -49 0
22 29 50 0
-22 -29 -50 0
27 29 51 0
-27 -29 -51 0
3 30 46 0
-3 -30 -46 0
8 30 47 0
-8 -30 -47 0
13 30 48 0
-13 -30 -48 0
18 30 49 0
-18 -30 -49 0
23 30 50 0
-23 -30 -50 0
28 30 51 0
-28 -30 -51 0
4 31 46 0
-4 -31 -46 0
9 31 47 0
-9 -31 -47 0
14 31 48 0
-14 -31 -48 0
19 31 49 0
-19 -31 -49 0
24 31 50 0
-24 -31 -50 0
29 31 51 0
-29 -31 -51 0
5 32 46 0
-5 -32 -46 0
10 32 47 0
-10 -32 -47 0
15 32 48 0
-15 -32 -48 0
20 32 49 0
-20 -32 -49 0
25 32 50 0
-25 -32 -50 0
30 32 51 0
-30 -32 -51 0
1 33 45 0
-1 -33 -45 0
6 33 46 0
-6 -33 -46 0
11 33 47 0
-11 -33 -47 0
16 33 48 0
-16 -33 -48 0
21 33 49 0
-21 -33 -49 0
26 33 50 0
-26 -33 -50 0
31 33 51 0
-31 -33 -51 0
2 34 45 0
-2 -34 -45 0
7 34 46 0
-7 -34 -46 0
12 34 47 0
-12 -34 -47 0
17 34 48 0
-17 -34 -48 0
22 34 49 0
-22 -34 -49 0
27 34 50 0
-27 -34 -50 0
32 34 51 0
-32 -34 -51 0
3 35 45 0
-3 -35 -45 0
8 35 46 0
-8 -35 -46 0
13 35 47 0
-13 -35 -47 0
18 35 48 0
-18 -35 -48 0
23 35 49 0
-23 -35 -49 0
28 35 50 0
-28 -35 -50 0
33 35 51 0
-33 -35 -51 0
4 36 45 0
-4 -36 -45 0
9 36 46 0
-9 -36 -46 0
14 36 47 0
-14 -36 -47 0
19 36 48 0
-19 -36 -48 0
24 36 49 0
-24 -36 -49 0
29 36 50 0
-29 -36 -50 0
34 36 51 0
-34 -36 -51 0
5 37 45 0
-5 -37 -45 0
10 37 46 0
-10 -37 -46 0
15 37 47 0
-15 -37 -47 0
20 37 48 0
-20 -37 -48 0
25 37 49 0
-25 -37 -49 0
30 37 50 0
-30 -37 -50 0
35 37 51 0
-35 -37 -51 0
1 38 44 0
-1 -38 -44 0
6 38 45 0
-6 -38 -45 0
11 38 46 0
-11 -38 -46 0
16 38 47 0
-16 -38 -47 0
21 38 48 0
-21 -38 -48 0
26 38 49 0
-26 -38 -49 0
31 38 50 0
-31 -38 -50 0
36 38 51 0
-36 -38 -51 0
2 39 44 0
-2 -39 -44 0
7 39 45 0
-7 -39 -45 0
12 39 46 0
-12 -39 -46 0
17 39 47 0
-17 -39 -47 0
22 39 48 0
-22 -39 -48 0
27 39 49 0
-27 -39 -49 0
32 39 50 0
-32 -39 -50 0
37 39 51 0
-37 -39 -51 0
3 40 44 0
-3 -40 -44 0
8 40 45 0
-8 -40 -45 0
13 40 46 0
-13 -40 -46 0
18 40 47 0
-18 -40 -47 0
23 40 48 0
-23 -40 -48 0
28 40 49 0
-28 -40 -49 0
33 40 50 0
-33 -40 -50 0
38 40 51 0
-38 -40 -51 0
4 41 44 0
-4 -41 -44 0
9 41 45 0
-9 -41 -45 0
14 41 46 0
-14 -41 -46 0
19 41 47 0
-19 -41 -47 0
24 41 48 0
-24 -41 -48 0
29 41 49 0
-29 -41 -49 0
34 41 50 0
-34 -41 -50 0
39 41 51 0
-39 -41 -51 0
5 42 44 0
-5 -42 -44 0
10 42 45 0
-10 -42 -45 0
15 42 46 0
-15 -42 -46 0
20 42 47 0
-20 -42 -47 0
25 42 48 0
-25 -42 -48 0
30 42 49 0
-30 -42 -49 0
35 42 50 0
-35 -42 -50 0
40 42 51 0
-40 -42 -51 0
1 43 0
-1 -43 0
6 43 44 0
-6 -43 -44 0
11 43 45 0
-11 -43 -45 0
16 43 46 0
-16 -43 -46 0
21 43 47 0
-21 -43 -47 0
26 43 48 0
-26 -43 -48 0
31 43 49 0
-31 -43 -49 0
36 43 50 0
-36 -43 -50 0
41 43 51 0
-41 -43 -51 0
2 43 44 0
-2 -43 -44 0
7 44 0
-7 -44 0
12 44 45 0
-12 -44 -45 0
17 44 46 0
-17 -44 -46 0
22 44 47 0
-22 -44 -47 0
27 44 48 0
-27 -44 -48 0
32 44 49 0
-32 -44 -49 0
37 44 50 0
-37 -44 -50 0
42 44 51 0
-42 -44 -51 0
3 43 45 0
-3 -43 -45 0
8 44 45 0
-8 -44 -45 0
13 45 0
-13 -45 0
18 45 46 0
-18 -45 -46 0
23 45 47 0
-23 -45 -47 0
28 45 48 0
-28 -45 -48 0
33 45 49 0
-33 -45 -49 0
38 45 50 0
-38 -45 -50 0
43 45 51 0
-43 -45 -51 0
4 43 46 0
-4 -43 -46 0
9 44 46 0
-9 -44 -46 0
14 45 46 0
-14 -45 -46 0
19 46 0
-19 -46 0
24 46 47 0
-24 -46 -47 0
29 46 48 0
-29 -46 -48 0
34 46 49 0
-34 -46 -49 0
39 46 50 0
-39 -46 -50 0
44 46 51 0
-44 -46 -51 0
5 43 47 0
-5 -43 -47 0
10 44 47 0
-10 -44 -47 0
15 45 47 0
-15 -45 -47 0
20 46 47 0
-20 -46 -47 0
25 47 0
-25 -47 0
30 47 48 0
-30 -47 -48 0
35 47 49 0
-35 -47 -49 0
40 47 50 0
-40 -47 -50 0
45 47 51 0
-45 -47 -51 0
1 42 48 0
-1 -42 -48 0
6 43 48 0
-6 -43 -48 0
11 44 48 0
-11 -44 -48 0
16 45 48 0
-16 -45 -48 0
21 46 48 0
-21 -46 -48 0
26 47 48 0
-26 -47 -48 0
31 48 0
-31 -48 0
36 48 49 0
-36 -48 -49 0
41 48 50 0
-41 -48 -50 0
46 48 51 0
-46 -48 -51 0
2 42 49 0
-2 -42 -49 0
7 43 49 0
-7 -43 -49 0
12 44 49 0
-12 -44 -49 0
17 45 49 0
-17 -45 -49 0
22 46 49 0
-22 -46 -49 0
27 47 49 0
-27 -47 -49 0
32 48 49 0
-32 -48 -49 0
37 49 0
-37 -49 0
42 49 50 0
-42 -49 -50 0
47 49 51 0
-47 -49 -51 0
3 42 50 0
-3 -42 -50 0
8 43 50 0
-8 -43 -50 0
13 44 50 0
-13 -44 -50 0
18 45 50 0
-18 -45 -50 0
23 46 50 0
-23 -46 -50 0
28 47 50 0
-28 -47 -50 0
33 48 50 0
-33 -48 -50 0
38 49 50 0
-38 -49 -50 0
43 50 0
-43 -50 0
48 50 51 0
-48 -50 -51 0
4 42 51 0
-4 -42 -51 0
9 43 51 0
-9 -43 -51 0
14 44 51 0
-14 -44 -51 0
19 45 51 0
-19 -45 -51 0
24 46 51 0
-24 -46 -51 0
29 47 51 0
-29 -47 -51 0
34 48 51 0
-34 -48 -51 0
39 49 51 0
-39 -49 -51 0
44 50 51 0
-44 -50 -51 0
49 51 0
-49 -51 0
