certificates/rado_a5_c257_N51.drat
-51 0
49 0
-37 0
35 0
39 0
-23 0
-47 0
-27 0
21 0
25 0
45 0
29 0
1 0
15 0
5 0
-9 0
-33 0
-13 0
-17 0
-3 0
-7 0
-41 0
-43 0
0
